sat
(:max-memory          18.44
 :memory              17.66
 :num-allocs          91431275
 :rlimit-count        3127558
 :sls-constraints     2514
 :sls-ddfw-flips      1805080.00
 :sls-ddfw-reinits    19
 :sls-ddfw-restarts   168
 :sls-ddfw-shifts     913976.00
 :sls-euf-conflict    2514
 :solve-eqs-elim-vars 5
 :solve-eqs-steps     12
 :time                1.87
 :total-time          1.76)
